c turning on binary mode checking
c parsing input formula with 202048 variables and 780985 clauses
c finished parsing, read 16219117 bytes from proof file
c detected empty clause; start verification via backward checking
c 7759 of 780985 clauses in core                            
c 6143 of 443903 lemmas in core using 64561 resolution steps
c 0 RAT lemmas in core; 434 redundant literals in core lemmas
s VERIFIED
c verification time: 1.966 seconds
